
Log started (V11.0.0) Wed May 14 22:45:37 2008

Tried aggregator 1 time.
Reduced MIP has 140 rows, 4001 columns, and 8040 nonzeros.
Presolve time =    0.03 sec.
Clique table members: 100.
MIP emphasis: balance optimality and feasibility.
MIP search method: dynamic search.
Parallel mode: none, using 1 thread.
Root relaxation solution time =    0.20 sec.

        Nodes                                         Cuts/
   Node  Left     Objective  IInf  Best Integer     Best Node    ItCnt     Gap

*     0+    0                        11096.0000      250.6494      413   97.74%
*     0+    0                          303.0000      250.6494      413   17.28%
      0     0      251.8857    72      303.0000      Fract: 5      441   16.87%
*     0+    0                          302.0000      251.8857      441   16.59%
      0     0      275.0607    89      302.0000   MIRcuts: 39     1731    8.92%
      0     0      275.0610   105      302.0000   MIRcuts: 32     1921    8.92%
      0     0      275.0617   101      302.0000      Cuts: 38     2058    8.92%
      0     0      275.0625    88      302.0000      Cuts: 26     2315    8.92%
      0     0      275.6962   101      302.0000      Cuts: 26     2450    8.71%
      0     0      275.6962   107      302.0000      Cuts: 22     2585    8.71%
*     0+    0                          301.0000      275.6962     2585    8.41%
*     0+    0                          300.0000      275.6962     2585    8.10%
      0     2      275.6962   107      300.0000      275.6962     2585    8.10%
    100    77      276.0000    66      300.0000      276.0000    10361    8.00%
    200   137      276.0000    59      300.0000      276.0000    19185    8.00%
    300   198      276.0000    64      300.0000      276.0000    27495    8.00%
    400   265      276.0000    59      300.0000      276.0000    33550    8.00%
    500   321      276.3963    70      300.0000      276.0000    43974    8.00%

Cover cuts applied:  29
Flow cuts applied:  3
Mixed integer rounding cuts applied:  47
Zero-half cuts applied:  8

Solution pool: 5 solutions saved.

MIP - Integer optimal solution:  Objective = 3.0000000000e+002
Solution time =   23.84 sec.  Iterations = 46204  Nodes = 511 (327)


Incumbent solution
Variable Name           Solution Value
Cmax                        300.000000
X_1_33                        1.000000
X_2_37                        1.000000
X_3_26                        1.000000
X_4_19                        1.000000
X_5_7                         1.000000
X_6_21                        1.000000
X_7_35                        1.000000
X_8_23                        1.000000
X_9_31                        1.000000
X_10_36                       1.000000
X_11_24                       1.000000
X_12_33                       1.000000
X_13_18                       1.000000
X_14_30                       1.000000
X_15_1                        1.000000
X_16_16                       1.000000
X_17_36                       1.000000
X_18_5                        1.000000
X_19_15                       1.000000
X_20_17                       1.000000
X_21_27                       1.000000
X_22_2                        1.000000
X_23_29                       1.000000
X_24_24                       1.000000
X_25_20                       1.000000
X_26_16                       1.000000
X_27_8                        1.000000
X_28_22                       1.000000
X_29_31                       1.000000
X_30_2                        1.000000
X_31_9                        1.000000
X_32_3                        1.000000
X_33_2                        1.000000
X_34_10                       1.000000
X_35_35                       1.000000
X_36_27                       1.000000
X_37_12                       1.000000
X_38_20                       1.000000
X_39_39                       1.000000
X_40_3                        1.000000
X_41_9                        1.000000
X_42_34                       1.000000
X_43_39                       1.000000
X_44_17                       1.000000
X_45_25                       1.000000
X_46_29                       1.000000
X_47_37                       1.000000
X_48_19                       1.000000
X_49_6                        1.000000
X_50_38                       1.000000
X_51_33                       1.000000
X_52_4                        1.000000
X_53_14                       1.000000
X_54_34                       1.000000
X_55_5                        1.000000
X_56_18                       1.000000
X_57_19                       1.000000
X_58_15                       1.000000
X_59_11                       1.000000
X_60_12                       1.000000
X_61_31                       1.000000
X_62_34                       1.000000
X_63_10                       1.000000
X_64_11                       1.000000
X_65_35                       1.000000
X_66_8                        1.000000
X_67_25                       1.000000
X_68_40                       1.000000
X_69_22                       1.000000
X_70_6                        1.000000
X_71_4                        1.000000
X_72_13                       1.000000
X_73_32                       1.000000
X_74_26                       1.000000
X_75_7                        1.000000
X_76_21                       1.000000
X_77_40                       1.000000
X_78_21                       1.000000
X_79_8                        1.000000
X_80_17                       1.000000
X_81_38                       1.000000
X_82_22                       1.000000
X_83_32                       1.000000
X_84_28                       1.000000
X_85_1                        1.000000
X_86_23                       1.000000
X_87_16                       1.000000
X_88_30                       1.000000
X_89_12                       1.000000
X_90_11                       1.000000
X_91_13                       1.000000
X_92_25                       1.000000
X_93_32                       1.000000
X_94_23                       1.000000
X_95_27                       1.000000
X_96_3                        1.000000
X_97_28                       1.000000
X_98_14                       1.000000
X_99_13                       1.000000
X_100_14                      1.000000
All other variables in the range 1-4001 are 0.
